NAME: random-79-22928
TYPE: TSP
COMMENT: size=79 seed=22928
DIMENSION: 160
EDGE_WEIGHT_TYPE: EUC_2D
NODE_COORD_SECTION
+0 896 367
-0 896 367
+1 935 476
-1 366 229
+2 166 742
-2 896 997
+3 932 552
-3 361 616
+4 420 640
-4 390 732
+5 100 170
-5 864 245
+6 880 417
-6 996 513
+7 162 708
-7 479 203
+8 137 840
-8 908 749
+9 777 998
-9 178 616
+10 768 647
-10 561 824
+11 194 458
-11 730 700
+12 988 414
-12 550 393
+13 227 991
-13 565 121
+14 434 981
-14 478 948
+15 589 199
-15 933 114
+16 541 309
-16 662 864
+17 274 394
-17 984 239
+18 536 120
-18 258 136
+19 86 652
-19 427 459
+20 660 754
-20 851 680
+21 947 162
-21 80 8
+22 523 213
-22 602 263
+23 584 600
-23 65 36
+24 592 518
-24 886 604
+25 535 400
-25 793 448
+26 108 642
-26 397 637
+27 141 349
-27 264 436
+28 755 366
-28 358 562
+29 815 853
-29 562 806
+30 638 31
-30 236 218
+31 8 26
-31 776 340
+32 459 576
-32 784 70
+33 534 869
-33 61 705
+34 634 582
-34 127 739
+35 610 633
-35 967 684
+36 33 436
-36 523 815
+37 220 168
-37 583 299
+38 977 772
-38 919 675
+39 657 923
-39 796 364
+40 890 387
-40 342 540
+41 314 801
-41 794 600
+42 867 223
-42 199 650
+43 753 318
-43 269 248
+44 506 793
-44 612 783
+45 869 986
-45 507 625
+46 36 335
-46 381 447
+47 246 921
-47 797 104
+48 125 105
-48 137 646
+49 612 179
-49 528 580
+50 420 60
-50 553 834
+51 677 769
-51 314 906
+52 795 92
-52 550 857
+53 17 923
-53 626 832
+54 198 103
-54 326 261
+55 722 212
-55 279 510
+56 797 522
-56 796 382
+57 943 976
-57 972 998
+58 495 575
-58 365 644
+59 869 698
-59 471 32
+60 523 186
-60 247 950
+61 980 553
-61 499 137
+62 687 411
-62 821 124
+63 867 844
-63 382 553
+64 128 227
-64 986 473
+65 494 200
-65 303 562
+66 613 146
-66 871 568
+67 810 402
-67 519 125
+68 714 284
-68 502 752
+69 627 428
-69 558 757
+70 519 763
-70 606 295
+71 747 850
-71 328 504
+72 771 87
-72 128 160
+73 987 512
-73 131 786
+74 934 672
-74 214 694
+75 123 711
-75 190 267
+76 982 427
-76 372 204
+77 733 620
-77 692 310
+78 996 321
-78 158 502
+79 783 379
-79 615 11
PRECEDENCE_SECTION
+0 -0
+1 -1
+2 -2
+3 -3
+4 -4
+5 -5
+6 -6
+7 -7
+8 -8
+9 -9
+10 -10
+11 -11
+12 -12
+13 -13
+14 -14
+15 -15
+16 -16
+17 -17
+18 -18
+19 -19
+20 -20
+21 -21
+22 -22
+23 -23
+24 -24
+25 -25
+26 -26
+27 -27
+28 -28
+29 -29
+30 -30
+31 -31
+32 -32
+33 -33
+34 -34
+35 -35
+36 -36
+37 -37
+38 -38
+39 -39
+40 -40
+41 -41
+42 -42
+43 -43
+44 -44
+45 -45
+46 -46
+47 -47
+48 -48
+49 -49
+50 -50
+51 -51
+52 -52
+53 -53
+54 -54
+55 -55
+56 -56
+57 -57
+58 -58
+59 -59
+60 -60
+61 -61
+62 -62
+63 -63
+64 -64
+65 -65
+66 -66
+67 -67
+68 -68
+69 -69
+70 -70
+71 -71
+72 -72
+73 -73
+74 -74
+75 -75
+76 -76
+77 -77
+78 -78
+79 -79
EOF
